************************************************************************
file with basedata            : j60_44.bas
initial value random generator: 1058027004
************************************************************************
projects                      :  1
jobs (incl. supersource/sink ):  62
horizon                       :  331
RESOURCES
  - renewable                 :  4   R
  - nonrenewable              :  0   N
  - doubly constrained        :  0   D
************************************************************************
PROJECT INFORMATION:
pronr.  #jobs rel.date duedate tardcost  MPM-Time
    1     60      0       71       14       71
************************************************************************
PRECEDENCE RELATIONS:
jobnr.    #modes  #successors   successors
   1        1          3           2   3   4
   2        1          3           5   6   8
   3        1          3           7  15  17
   4        1          1          13
   5        1          3           9  10  13
   6        1          3          11  20  27
   7        1          1          54
   8        1          3          14  21  46
   9        1          3          18  31  34
  10        1          3          24  35  39
  11        1          2          12  23
  12        1          1          45
  13        1          3          16  38  48
  14        1          1          60
  15        1          1          32
  16        1          3          26  27  29
  17        1          3          19  26  30
  18        1          3          22  39  40
  19        1          2          23  32
  20        1          3          25  36  51
  21        1          2          23  26
  22        1          1          46
  23        1          3          34  41  49
  24        1          2          42  47
  25        1          3          28  29  33
  26        1          2          37  52
  27        1          3          40  41  53
  28        1          2          53  55
  29        1          3          30  43  50
  30        1          1          52
  31        1          1          45
  32        1          2          48  49
  33        1          1          44
  34        1          1          50
  35        1          2          40  52
  36        1          2          42  48
  37        1          2          42  50
  38        1          1          41
  39        1          3          49  51  56
  40        1          1          58
  41        1          1          51
  42        1          1          55
  43        1          1          57
  44        1          1          47
  45        1          3          46  58  61
  46        1          2          47  54
  47        1          1          56
  48        1          1          56
  49        1          1          54
  50        1          1          53
  51        1          1          59
  52        1          1          57
  53        1          1          57
  54        1          1          55
  55        1          2          59  60
  56        1          1          60
  57        1          2          58  61
  58        1          1          59
  59        1          1          62
  60        1          1          62
  61        1          1          62
  62        1          0        
************************************************************************
REQUESTS/DURATIONS:
jobnr. mode duration  R 1  R 2  R 3  R 4
------------------------------------------------------------------------
  1      1     0       0    0    0    0
  2      1     6       4    8    0    6
  3      1     4       0    2    2    0
  4      1    10       2    4    8    0
  5      1     6       5    5    6    3
  6      1     6       4    8    8    3
  7      1     9       3    0    0    8
  8      1     4       3    0    0    5
  9      1     3       6    4    5    0
 10      1    10       4    0    6    6
 11      1     9       8    0   10    5
 12      1     6       4    6    0    6
 13      1     9       5    0    4    3
 14      1     4       8    0    0   10
 15      1     3       5    9    0    0
 16      1     9       9    6    8    0
 17      1     3       5    9    3    6
 18      1     3       3    3    3   10
 19      1     7       5    5    0    3
 20      1     1       0    9    2    2
 21      1    10      10    0   10    2
 22      1     7       4    8    0    9
 23      1     1       5    3    0    7
 24      1     1       3   10    3    0
 25      1     7      10   10    3    2
 26      1     5       2    3    1    6
 27      1     5      10    8    3    8
 28      1     1       2    3    0   10
 29      1     8      10    2    9    7
 30      1    10       0    9    4    4
 31      1     1       5    9    9    4
 32      1    10       2    3    0    6
 33      1     1       0    9   10    2
 34      1    10       0    8    3    0
 35      1     4       7    0    0    4
 36      1     7       5   10   10    0
 37      1     3       4    3    4   10
 38      1     1       4    4    4    8
 39      1     8       0    6    1    0
 40      1     8       0    0    8    6
 41      1     4       3   10    7    0
 42      1     4      10    1    2    0
 43      1     1       9    0    0    3
 44      1     3       0   10    7    5
 45      1     5       0    0    5    9
 46      1     5       9    2    6    1
 47      1     7       1    9    4    3
 48      1     6       5    7    6    1
 49      1     6       6    2    0    2
 50      1     4       1    6    8    0
 51      1     9       6   10    5    0
 52      1     8       2    9    0    9
 53      1    10       0    0    0    3
 54      1     6       1    1    7    9
 55      1     8       4    1    8    0
 56      1     5       0   10    2    5
 57      1     9       0    8    5    6
 58      1     2       0   10    2    1
 59      1     4       0    3    5    0
 60      1     2       1    0    4    0
 61      1     3      10    9    2    8
 62      1     0       0    0    0    0
************************************************************************
RESOURCEAVAILABILITIES:
  R 1  R 2  R 3  R 4
   61   57   55   47
************************************************************************
